c --- [ banner ] -------------------------------------------------------------
c 
c CaDiCaL Radically Simplified CDCL SAT Solver
c Copyright (c) 2016-2021 A. Biere, M. Fleury, N. Froleyks
c 
c Version 1.5.2 ca9bff05c11bde5eae4912f9932871d1527e61d8
c g++ (GCC) 9.3.0 -Wall -Wextra -O3 -DNDEBUG
c Thu Mar 31 01:52:53 EDT 2022 Linux gra-login3 3.10.0-1160.59.1.el7.x86_64 x86_64
c 
c --- [ limit ] --------------------------------------------------------------
c 
c setting conflict limit to 200000 conflicts (due to '200000')
c 
c --- [ parsing input ] ------------------------------------------------------
c 
c reading DIMACS file from '10.cubes1000.adj'
c opening file to read '10.cubes1000.adj'
c found 'p cnf 5320 922652' header
c parsed 922652 clauses in 8.57 seconds process time
c closing file '10.cubes1000.adj'
c after reading 673840311 bytes 642.6 MB
c 
c --- [ options ] ------------------------------------------------------------
c 
c all options are set to their default value
c 
c --- [ solving ] ------------------------------------------------------------
c 
c time measured in process time since initialization
c 
c  seconds   reductions  redundant  irredundant
c          MB    restarts       trail      variables
c           level   conflicts       glue        remaining
c 
c *  8.57 672  0 0   0    0    0  0% 0 922009 4198 79%
c {  8.97 692  0 0   0    0    0  0% 0 922009 4198 79%
c i 10.76 740 56 0  10   86   58 38% 11 922009 4197 79%
c i 10.84 741 56 0  11   88   59 38% 11 922009 4196 79%
c i 10.85 741 56 0  12   91   61 39% 12 922009 4195 79%
c i 10.92 741 56 0  12   95   64 39% 14 922009 4194 79%
c i 10.94 741 55 0  13   98   65 40% 14 922009 4147 78%
c i 10.96 741 54 0  14  100   66 40% 14 922009 4146 78%
c i 11.24 744 58 0  16  111   73 41% 16 922009 4145 78%
c i 11.84 751 47 0  26  181  115 40% 15 922009 4142 78%
c i 12.51 759 57 0  38  230  156 43% 22 922009 4141 78%
c i 12.58 759 57 0  38  231  156 43% 22 922009 4140 78%
c - 14.90 744 57 1  49  300  204 43% 22 463638 4140 78%
c i 15.29 720 60 1  53  320  220 44% 23 463638 4137 78%
c i 15.53 720 68 1  57  338  233 44% 27 463638 4136 78%
c i 15.63 720 71 1  61  352  245 44% 29 463638 4135 78%
c i 15.95 721 74 1  68  384  262 45% 30 463638 4132 78%
c i 16.12 722 75 1  72  394  271 45% 30 463638 4131 78%
c i 16.13 722 75 1  72  395  271 45% 30 463638 4130 78%
c i 16.13 722 74 1  72  396  271 45% 30 463638 4129 78%
c 
c  seconds   reductions  redundant   irredundant
c          MB    restarts       trail       variables
c           level   conflicts       glue         remaining
c 
c i 16.24 722 74 1  75  409  281 45% 30 463638 4128 78%
c i 16.25 722 73 1  75  413  283 45% 30 463638 4127 78%
c i 16.52 722 74 1  79  427  295 45% 30 463638 4126 78%
c i 16.53 722 74 1  79  431  298 45% 30 463638 4125 78%
c i 16.63 722 75 1  82  441  306 46% 31 463638 4124 78%
c i 16.66 722 75 1  83  449  313 46% 31 463638 4123 78%
c i 16.66 722 75 1  83  450  313 46% 31 463638 4122 77%
c i 16.66 722 74 1  83  451  313 46% 31 463638 4121 77%
c i 16.92 722 71 1  91  502  352 47% 31 463638 4120 77%
c i 16.93 722 71 1  91  503  352 47% 31 463638 4106 77%
c i 16.93 722 71 1  91  505  353 47% 31 463638 4105 77%
c i 16.94 722 70 1  91  508  355 47% 31 463638 4104 77%
c i 17.01 723 69 1  91  534  374 47% 31 463638 4103 77%
c i 17.05 723 69 1  91  553  387 47% 31 463638 4102 77%
c i 17.05 723 69 1  91  554  387 47% 31 463638 4101 77%
c i 17.05 723 69 1  91  555  387 47% 31 463638 4100 77%
c i 17.78 723 72 1  99  738  540 48% 30 463638 4099 77%
c i 17.85 723 71 1  99  770  563 48% 30 463638 4098 77%
c i 17.90 723 70 1  99  779  570 48% 30 463638 4097 77%
c i 17.98 724 69 1  99  820  595 48% 29 463638 4096 77%
c 
c  seconds   reductions  redundant   irredundant
c          MB    restarts       trail       variables
c           level   conflicts       glue         remaining
c 
c i 18.01 724 68 1  99  845  617 48% 29 463638 4095 77%
c i 18.01 724 68 1  99  846  617 48% 29 463638 4094 77%
c i 18.01 724 68 1  99  847  617 48% 29 463638 4093 77%
c i 18.01 724 68 1  99  848  617 48% 29 463638 4092 77%
c i 18.11 724 65 1  99  937  677 49% 28 463638 4091 77%
c i 18.14 724 64 1  99  956  690 49% 28 463638 4090 77%
c } 18.16 724 62 1  99 1000  727 49% 28 463638 4090 77%
c [ 18.16 724  0 1  99 1000  727  0% 0 463638 4090 77%
c O 18.21 724 11 1  99 1002  729 45% 8 463638 4090 77%
c i 18.21 724  6 1  99 1004  729 35% 4 463638 4068 76%
c i 18.21 724  5 1  99 1005  729 33% 3 463638 4049 76%
c i 18.21 724  3 1  99 1007  729 31% 2 463638 3993 75%
c i 18.55 724 13 1  99 1094  773 43% 9 463638 3992 75%
c i 18.60 724 14 1  99 1118  792 46% 9 463638 3991 75%
c i 18.65 724 17 1  99 1151  818 48% 12 463638 3990 75%
c - 19.69 897 22 2  99 1299  826 52% 17 461743 3990 75%
c i 19.89 882 24 2  99 1360  872 53% 19 461743 3989 75%
c ] 20.52 882 23 2 100 2540 1614 56% 19 461743 3989 75%
c 1 20.52 882 23 2 100 2540 1614 56% 19 461743 3989 75%
c 
c --- [ writing output ] -----------------------------------------------------
c 
c writing simplified CNF to DIMACS file 'simp/10.cubes1000.adj.simp1'
c * 20.52 882 23 2 100 2540 1614 56% 19 461743 3989 75%
c opening file to write 'simp/10.cubes1000.adj.simp1'
c writing 'p cnf 5320 461740' header
c closing file 'simp/10.cubes1000.adj.simp1'
c after writing 210464068 bytes 200.7 MB
c wrote 461740 clauses in 1.67 seconds process time
c 
c --- [ writing extension ] --------------------------------------------------
c 
c writing extension stack to 'simp/10.cubes1000.adj.ext1'
c opening file to write 'simp/10.cubes1000.adj.ext1'
c closing file 'simp/10.cubes1000.adj.ext1'
c after writing 19028 bytes 0.0 MB
c wrote 1331 witnesses in 0.00 seconds process time
c 
c --- [ result ] -------------------------------------------------------------
c 
s SATISFIABLE
c 
c --- [ run-time profiling ] -------------------------------------------------
c 
c process time taken by individual solving procedures
c (percentage relative to process time for solving)
c 
c        11.94  100.00% search
c         9.19   76.97% unstable
c         8.57   71.75% parse
c         2.36   19.73% stable
c         0.39    3.30% lucky
c         0.00    0.00% simplify
c   =================================
c        11.94   53.84% solve
c 
c last line shows process time for solving
c (percentage relative to total process time)
c 
c --- [ statistics ] ---------------------------------------------------------
c 
c chronological:               646        25.43 %  of conflicts
c conflicts:                  2540       212.65    per second
c decisions:                 14682      1229.21    per second
c fixed:                      1331        25.02 %  of all variables
c learned:                    2478        97.56 %  per conflict
c learned_lits:             477116       100.00 %  learned literals
c minimized:                     0         0.00 %  learned literals
c shrunken:                 273987        57.43 %  learned literals
c minishrunken:              51467        10.79 %  learned literals
c propagations:             562325         0.05 M  per second
c reduced:                      82         3.23 %  per conflict
c rephased:                      1      2540.00    interval
c restarts:                    100        25.40    interval
c stabilizing:                   1        60.63 %  of conflicts
c subsumed:                    711         0.04 %  of all clauses
c 
c seconds are measured in process time for solving
c 
c --- [ resources ] ----------------------------------------------------------
c 
c total process time since initialization:        22.19    seconds
c total real time since initialization:           22.70    seconds
c maximum resident set size of process:          913.23    MB
c 
c --- [ shutting down ] ------------------------------------------------------
c 
c exit 10
c --- [ banner ] -------------------------------------------------------------
c 
c CaDiCaL Radically Simplified CDCL SAT Solver
c Copyright (c) 2016-2021 A. Biere, M. Fleury, N. Froleyks
c 
c Version 1.5.2 ca9bff05c11bde5eae4912f9932871d1527e61d8
c g++ (GCC) 9.3.0 -Wall -Wextra -O3 -DNDEBUG
c Thu Mar 31 01:52:53 EDT 2022 Linux gra-login3 3.10.0-1160.59.1.el7.x86_64 x86_64
c 
c --- [ limit ] --------------------------------------------------------------
c 
c setting conflict limit to 200000 conflicts (due to '200000')
c 
c --- [ parsing input ] ------------------------------------------------------
c 
c reading DIMACS file from 'simp/10.cubes1000.adj.simp1'
c opening file to read 'simp/10.cubes1000.adj.simp1'
c found 'p cnf 5320 461740' header
c parsed 461740 clauses in 2.64 seconds process time
c closing file 'simp/10.cubes1000.adj.simp1'
c after reading 210464068 bytes 200.7 MB
c 
c --- [ options ] ------------------------------------------------------------
c 
c all options are set to their default value
c 
c --- [ solving ] ------------------------------------------------------------
c 
c time measured in process time since initialization
c 
c  seconds   reductions  redundant  irredundant
c          MB    restarts       trail      variables
c           level   conflicts       glue        remaining
c 
c *  2.64 215  0 0   0    0    0  0% 0 461740 3986 75%
c {  2.78 222  0 0   0    0    0  0% 0 461740 3986 75%
c i  3.01 240 150 0   0   22   19 25% 10 461740 3976 75%
c i  3.21 244 119 0   0   54   48 25% 9 461740 3966 75%
c i  3.67 251 88 0  14  135  109 26% 19 461740 3965 75%
c i  4.12 255 83 0  26  177  149 26% 20 461740 3964 75%
c -  5.48 260 68 1  40  303  248 22% 21 314624 3964 75%
c i  6.01 248 52 1  56  486  374 23% 20 314624 3957 74%
c i  6.16 248 49 1  61  654  519 24% 20 314624 3956 74%
c i  6.17 248 49 1  65  669  528 24% 21 314624 3951 74%
c i  6.18 248 49 1  69  684  542 24% 21 314624 3950 74%
c i  6.19 248 49 1  69  687  543 24% 21 314624 3949 74%
c i  6.19 248 49 1  70  688  543 24% 21 314624 3948 74%
c i  6.23 248 50 1  78  728  569 24% 21 314624 3943 74%
c i  6.30 248 50 1  80  733  572 24% 21 314624 3942 74%
c i  6.77 249 50 1  85  841  634 24% 21 314624 3941 74%
c i  6.77 249 50 1  85  847  639 24% 21 314624 3940 74%
c i  6.97 249 50 1  94  887  673 24% 21 314624 3939 74%
c i  7.00 249 51 1  96  894  679 24% 22 314624 3938 74%
c }  7.77 249 53 1 121 1000  767 24% 23 314624 3938 74%
c 
c  seconds   reductions  redundant  irredundant
c          MB    restarts       trail      variables
c           level   conflicts       glue        remaining
c 
c [  7.77 249  0 1 121 1000  767  0% 0 314624 3938 74%
c O  7.79 250 53 1 121 1005  771 19% 9 314624 3938 74%
c -  8.71 374 17 2 121 1201  796 31% 14 314375 3938 74%
c i  9.03 366 18 2 121 1578 1045 31% 16 314375 3937 74%
c -  9.81 366 20 3 122 2551 1367 31% 17 314372 3937 74%
c i 10.11 348 20 3 122 2634 1428 42% 17 314372 3936 74%
c i 10.18 348 20 3 122 2764 1522 41% 17 314372 3935 74%
c ] 10.31 348 19 3 122 3003 1686 40% 17 314372 3935 74%
c { 10.31 348 53 3 122 3003 1686 32% 23 314372 3935 74%
c F 10.34 348 53 3 124 3009 1692 32% 23 314372 3935 74%
c i 10.64 348 49 3 126 3145 1800 33% 22 314372 3934 74%
c - 11.90 347 37 4 132 4349 2031 36% 20 314363 3934 74%
c 3 13.09 347 36 4 155 5000 3897 36% 20 314343 3924 74%
c 2 13.16 347 36 4 155 5000 4086 36% 20 314284 3924 74%
c p 17.23 347 36 4 155 5000 8819 36% 20 314284 3867 73%
c d 17.61 348 36 4 155 5000 8664 36% 20 314111 3862 73%
c # 21.81 347 40 4 275 6010 9350 34% 21 314111 3862 73%
c - 23.82 346 41 5 344 6595 2693 34% 21 314111 3862 73%
c } 25.56 346 43 5 426 7005 3047 34% 22 314111 3862 73%
c [ 25.56 346 19 5 426 7005 3047 40% 17 314111 3862 73%
c 
c  seconds   reductions  redundant   irredundant
c          MB    restarts       trail       variables
c           level   conflicts       glue         remaining
c 
c - 26.60 347 21 6 428 9293 3578 38% 17 314111 3862 73%
c I 27.20 347 22 6 428 10012 4086 39% 17 314111 3862 73%
c - 28.43 346 25 7 430 12436 3591 38% 21 314111 3862 73%
c s 29.14 346 27 7 431 13714 4307 38% 22 310666 3862 73%
c v 32.80 346 27 7 431 13714 4307 38% 22 310540 3862 73%
c t 32.90 346 27 7 431 13714 4307 38% 22 310517 3862 73%
c e 34.02 341 27 7 431 13714 3990 38% 22 304800 1034 19%
c s 34.13 341 27 7 431 13714 3989 38% 22 304546 1034 19%
c d 36.19 341 28 7 431 15002 4836 69% 23 289920 1033 19%
c 3 36.21 341 28 7 431 15002 5264 69% 23 289920 1033 19%
c 2 36.27 341 28 7 431 15002 5272 69% 23 289920 1033 19%
c p 36.69 341 28 7 431 15002 6633 69% 23 289920 1033 19%
c ] 36.77 341 28 7 431 15007 6637 69% 23 289920 1033 19%
c { 36.77 341 43 7 431 15007 6637 128% 22 289920 1033 19%
c B 36.81 341 43 7 431 15015 6644 128% 22 289920 1033 19%
c - 37.47 335 39 8 443 16028 4236 118% 22 289920 1033 19%
c - 39.45 335 33 9 524 19976 4441 98% 20 289920 1033 19%
c W 40.00 335 31 9 524 21016 5104 95% 20 289920 1033 19%
c - 49.23 335 38 10 1094 24362 5467 86% 22 289920 1033 19%
c F 52.88 335 36 10 1292 28018 8047 82% 22 289920 1033 19%
c 
c  seconds   reductions     redundant   irredundant
c          MB     restarts         trail       variables
c           level      conflicts       glue         remaining
c 
c - 54.00 336 35 11 1328 29187 6416 81% 22 289920 1033 19%
c p 55.59 336 35 11 1333 30003 9640 80% 21 289920 1029 19%
c } 55.90 336 34 11 1333 31009 10282 79% 21 289920 1029 19%
c [ 55.90 336 28 11 1333 31009 10282 69% 23 289920 1029 19%
c - 56.83 334 25 12 1334 34451 6650 69% 21 289909 1029 19%
c ] 56.89 334 25 12 1335 34587 6712 69% 21 289909 1029 19%
c 1 56.89 334 25 12 1335 34587 6712 69% 21 289909 1029 19%
c 
c --- [ writing output ] -----------------------------------------------------
c 
c writing simplified CNF to DIMACS file 'simp/10.cubes1000.adj.simp2'
c * 56.89 334 25 12 1335 34587 6712 69% 21 289909 1029 19%
c opening file to write 'simp/10.cubes1000.adj.simp2'
c writing 'p cnf 5320 289909' header
c closing file 'simp/10.cubes1000.adj.simp2'
c after writing 127921477 bytes 122.0 MB
c wrote 289909 clauses in 0.94 seconds process time
c 
c --- [ writing extension ] --------------------------------------------------
c 
c writing extension stack to 'simp/10.cubes1000.adj.ext2'
c opening file to write 'simp/10.cubes1000.adj.ext2'
c closing file 'simp/10.cubes1000.adj.ext2'
c after writing 162553 bytes 0.2 MB
c wrote 6564 witnesses in 0.00 seconds process time
c 
c --- [ result ] -------------------------------------------------------------
c 
s SATISFIABLE
c 
c --- [ run-time profiling ] -------------------------------------------------
c 
c process time taken by individual solving procedures
c (percentage relative to process time for solving)
c 
c        41.26   76.04% search
c        32.93   60.69% unstable
c        13.00   23.96% simplify
c         7.93   14.61% stable
c         5.59   10.30% probe
c         3.71    6.84% vivify
c         2.64    4.86% parse
c         2.18    4.03% elim
c         0.26    0.48% walk
c         0.23    0.42% subsume
c         0.14    0.26% lucky
c         0.14    0.25% ternary
c   =================================
c        54.25   93.81% solve
c 
c last line shows process time for solving
c (percentage relative to total process time)
c 
c --- [ statistics ] ---------------------------------------------------------
c 
c chronological:              6803        19.67 %  of conflicts
c conflicts:                 34587       637.51    per second
c decisions:                124801      2300.34    per second
c eliminated:                 2828        53.16 %  of all variables
c fixed:                       113         2.12 %  of all variables
c learned:                   33748        97.57 %  per conflict
c learned_lits:            6346636       100.00 %  learned literals
c minimized:                     0         0.00 %  learned literals
c shrunken:                3528323        55.59 %  learned literals
c minishrunken:             630300         9.93 %  learned literals
c propagations:            4600243         0.08 M  per second
c reduced:                   17247        49.87 %  per conflict
c rephased:                      7      4941.00    interval
c restarts:                   1335        25.91    interval
c stabilizing:                   3        39.27 %  of conflicts
c substituted:                  16         0.30 %  of all variables
c subsumed:                  13777         1.15 %  of all clauses
c strengthened:               8869         0.74 %  of all clauses
c ternary:                    2733         0.49 %  of resolved
c vivified:                    126         0.01 %  of all clauses
c walked:                        1     34587.00    interval
c weakened:                   6451         3.16    average size
c 
c seconds are measured in process time for solving
c 
c --- [ resources ] ----------------------------------------------------------
c 
c total process time since initialization:        57.83    seconds
c total real time since initialization:           58.12    seconds
c maximum resident set size of process:          489.97    MB
c 
c --- [ shutting down ] ------------------------------------------------------
c 
c exit 10
WARNING! DIMACS header mismatch: wrong number of variables.
============================[ Problem Statistics ]=============================
|                                                                             |
|  Number of variables:          3159                                         |
|  Number of clauses:          289911                                         |
|  Parse time:                   1.76 s                                       |
|  Simplification time:          0.03 s                                       |
|                                                                             |
============================[ Search Statistics ]====================================================
| Conflicts |          ORIGINAL         |          LEARNT          | Num Sols |      SUBGRAPHS      |
|           |    Vars  Clauses Literals |    Limit  Clauses Lit/Cl |          | Canonical Noncanon. |
=====================================================================================================
|       100 |    3085   289911 28715841 |     2000      100     14 |        0 |        24         0 |
|       267 |    3085   289928 28716317 |     2000      267     70 |        0 |        33        17 |
|       532 |    3085   289968 28717014 |     2000      532     87 |        0 |        44        57 |
|      1024 |    3085   290123 28719655 |     2000     1024     86 |        0 |        75       212 |
|      1642 |    3085   290235 28721715 |     2000     1642     89 |        0 |       135       324 |
|      2429 |    3085   290263 28722443 |     3603     1432     49 |        0 |       152       352 |
|      3591 |    3085   290286 28723111 |     3603     2594     75 |        0 |       198       375 |
|      6654 |    3085   291641 28753471 |     5004     3858     56 |        0 |       705      1730 |
|      9362 |    3085   291787 28757087 |     6304     4066     62 |        0 |       814      1876 |
|     19349 |    3085   297930 28881263 |     8786     7135     19 |        0 |      1625      8019 |
|     66479 |    3085   339294 29709721 |    17215    10894     14 |        0 |      8254     49383 |
|    129977 |    3085   394143 30743978 |    24424    13801     25 |        0 |     14886    104232 |
|    179269 |    3085   430461 31347087 |    28011    24680     13 |        0 |     17922    140550 |
|    211666 |    3085   443397 31560351 |    30415    28481     63 |        0 |     19672    153486 |
|    254869 |    3085   457408 31791905 |    34011    24280     45 |        0 |     21325    167497 |
|    377997 |    3085   536747 33193147 |    41221    36418     57 |        0 |     26825    246836 |
|    455872 |    3085   548938 33394015 |    46026    28298     38 |        0 |     27992    259027 |
|    563571 |    3085   558111 33547455 |    50834    40405     57 |        0 |     28599    268200 |
|    714006 |    3085   560757 33589527 |    58013    29419     22 |        0 |     28833    270846 |
|   1052984 |    3085   678052 35404360 |    70025    51409     50 |        0 |     33156    388141 |
|   1433457 |    3085   726000 35971581 |    82016    54873     46 |        0 |     36417    436089 |
|   2101185 |    3069   372715 26030478 |    97015    92200     75 |        0 |     45391    605029 |
=====================================================================================================
Number of solutions   : 0
Canonical subgraphs   : 47130          (47 /sec)
          order  3    : 1              (200000 /sec)
          order  4    : 1              (500000 /sec)
          order  5    : 1              (200000 /sec)
          order  6    : 1              (52632 /sec)
          order  7    : 2              (10256 /sec)
          order  8    : 6              (2610 /sec)
          order  9    : 23             (802 /sec)
          order 10    : 82             (233 /sec)
          order 11    : 328            (104 /sec)
          order 12    : 1227           (72 /sec)
          order 13    : 5861           (68 /sec)
          order 14    : 34676          (53 /sec)
          order 15    : 4759           (21 /sec)
          order 16    : 161            (23 /sec)
          order 17    : 1              (11 /sec)
          order 18    : 0              (-nan /sec)
          order 19    : 0              (-nan /sec)
          order 20    : 0              (-nan /sec)
          order 21    : 0              (-nan /sec)
Noncanonical subgraphs: 647933         (317 /sec)
          order  3    : 0              (-nan /sec)
          order  4    : 0              (-nan /sec)
          order  5    : 0              (-nan /sec)
          order  6    : 0              (-nan /sec)
          order  7    : 0              (-nan /sec)
          order  8    : 0              (-nan /sec)
          order  9    : 0              (-nan /sec)
          order 10    : 0              (-nan /sec)
          order 11    : 0              (-nan /sec)
          order 12    : 0              (-nan /sec)
          order 13    : 27011          (2606 /sec)
          order 14    : 44717          (3054 /sec)
          order 15    : 560973         (290 /sec)
          order 16    : 15080          (173 /sec)
          order 17    : 152            (220 /sec)
          order 18    : 0              (-nan /sec)
          order 19    : 0              (-nan /sec)
          order 20    : 0              (-nan /sec)
Canonicity checking   : 998.793 s
Noncanonicity checking: 2045.03 s
Total canonicity time : 3043.82 s
database reductions   : 83
restarts              : 4094
conflicts             : 2254647        (604 /sec)
decisions             : 3417371        (0.00 % random) (915 /sec)
propagations          : 101807997      (27267 /sec)
conflict literals     : 193417092      (57.10 % deleted)
actual reward         : 0.222387
Memory used           : 476.00 MB
CPU time              : 3733.79 s

UNSATISFIABLE
